SPARKNaCl/why3-z3/sparknacl-secretbox.ads_23_28_range_check_1.smt2
;; produced by z3_gnatprove.drv ;;
(set-info :smt-lib-version 2.5)
(set-info :source |VC generated by SPARK 2014|)
(set-info :category industrial)
(set-info :status unknown)
;;; generated by SMT-LIB2 driver
;;; SMT-LIB2 driver: bit-vectors, common part
;;; SMT-LIB2: integer arithmetic
(declare-sort byte 0)

;; "to_rep"
(declare-fun to_rep (byte) (_ BitVec 8))

;; "of_rep"
(declare-fun of_rep ((_ BitVec 8)) byte)

;; "inversion_axiom"
(assert
  (forall ((x byte)) (! (= (of_rep (to_rep x)) x) :pattern ((to_rep x)) )))

;; "range_axiom"
(assert true)

;; "coerce_axiom"
(assert
  (forall ((x (_ BitVec 8)))
    (! (= (to_rep (of_rep x)) x) :pattern ((to_rep (of_rep x))) )))

(declare-sort map1 0)

(declare-datatypes ()
  ((map__ref (map__refqtmk (map__content map1)))))

;; "has_bounds"
(declare-fun has_bounds (map1
  Int
  Int) Bool)

;; "get"
(declare-fun get (map1
  Int) byte)

(declare-sort tinteger_32B 0)

;; "tinteger_32B'int"
(declare-fun tinteger_32Bqtint (tinteger_32B) Int)

;; "tinteger_32B'axiom"
(assert
  (forall ((i tinteger_32B))
    (and
      (<= (- 2147483648) (tinteger_32Bqtint i))
      (<= (tinteger_32Bqtint i) 2147483647))))

;; "in_range"
(define-fun in_range ((x Int)) Bool
  (and (<= (- 2147483648) x) (<= x 2147483647)))

(declare-const c__first tinteger_32B)

(declare-const c__last tinteger_32B)

;; "to_rep"
(define-fun to_rep1 ((x tinteger_32B)) Int
  (tinteger_32Bqtint x))

;; "of_rep"
(declare-fun of_rep1 (Int) tinteger_32B)

;; "inversion_axiom"
(assert
  (forall ((x tinteger_32B))
    (! (= (of_rep1 (to_rep1 x)) x) :pattern ((to_rep1 x)) )))

;; "range_axiom"
(assert
  (forall ((x tinteger_32B))
    (! (in_range (to_rep1 x)) :pattern ((to_rep1 x)) )))

;; "coerce_axiom"
(assert
  (forall ((x Int))
    (! (=> (in_range x) (= (to_rep1 (of_rep1 x)) x)) :pattern ((to_rep1
                                                                 (of_rep1 x))) )))

;; "in_range"
(define-fun in_range1 ((x Int)) Bool
  (and (<= 0 x) (<= x 2147483647)))

(declare-datatypes ()
  ((t (tqtmk (rec__first tinteger_32B)(rec__last tinteger_32B)))))

;; "mk"
(declare-fun mk (Int
  Int) t)

;; "mk_def"
(assert
  (forall ((f Int) (l Int))
    (! (=>
         (in_range f)
         (=>
           (in_range l)
           (and
             (= (to_rep1 (rec__first (mk f l))) f)
             (= (to_rep1 (rec__last (mk f l))) l)))) :pattern ((mk f l)) )))

;; "dynamic_property"
(define-fun dynamic_property ((range_first Int) (range_last Int) (low Int) (high Int)) Bool
  (and
    (in_range low)
    (and
      (in_range high)
      (=> (<= low high) (and (in_range1 low) (in_range1 high))))))

(declare-datatypes ()
  ((us_t (us_tqtmk (elts map1)(rt t)))))

;; "of_array"
(define-fun of_array ((a map1) (f Int) (l Int)) us_t
  (us_tqtmk a (mk f l)))

;; "first"
(define-fun first ((a us_t)) Int
  (to_rep1 (rec__first (rt a))))

;; "last"
(define-fun last ((a us_t)) Int
  (to_rep1 (rec__last (rt a))))

;; "length"
(define-fun length ((a us_t)) Int
  (ite (<= (first a) (last a)) (+ (- (last a) (first a)) 1) 0))

;; "well_formed"
(define-fun well_formed ((a us_t)) Bool
  (has_bounds
    (elts a)
    (to_rep1 (rec__first (rt a)))
    (to_rep1 (rec__last (rt a)))))

(declare-const m us_t)

(declare-const n map1)

(declare-const zero_bytes_32 map1)

(declare-const zero_bytes_16 map1)

(declare-sort us_main_type 0)

(declare-datatypes ()
  ((us_split_fields
   (us_split_fieldsqtmk
   (rec__ada___sparknacl__mac__poly_1305_key us_main_type)))))

(declare-datatypes ()
  ((us_split_fields__ref
   (us_split_fields__refqtmk (us_split_fields__content us_split_fields)))))

;; "dynamic_invariant"
(define-fun dynamic_invariant ((temp___expr_254 us_t) (temp___is_init_250 Bool) (temp___skip_constant_251 Bool) (temp___do_toplevel_252 Bool) (temp___do_typ_inv_253 Bool)) Bool
  (and
    (=>
      (not (= temp___skip_constant_251 true))
      (dynamic_property
        0
        2147483647
        (first temp___expr_254)
        (last temp___expr_254)))
    (well_formed temp___expr_254)))

;; "sparknacl__zero_bytes_32__aggregate_def"
(declare-fun sparknacl__zero_bytes_32__aggregate_def ((_ BitVec 8)) map1)

;; "sparknacl__zero_bytes_16__aggregate_def"
(declare-fun sparknacl__zero_bytes_16__aggregate_def ((_ BitVec 8)) map1)

;; "zero_bytes_32__def_axiom"
(assert
  (= zero_bytes_32 (let ((temp___174 (sparknacl__zero_bytes_32__aggregate_def
                                       #x00)))
                     (let ((temp___175 temp___174)) temp___175))))

;; "def_axiom"
(assert
  (forall ((temp___170 (_ BitVec 8)))
    (let ((temp___171 (sparknacl__zero_bytes_32__aggregate_def temp___170)))
      (and
        (has_bounds temp___171 0 31)
        (forall ((temp___172 Int))
          (! (=>
               (and (<= 0 temp___172) (<= temp___172 31))
               (= (to_rep (get temp___171 temp___172)) temp___170)) :pattern (
          (get
            temp___171
            temp___172)) ))))))

;; "zero_bytes_16__def_axiom"
(assert
  (= zero_bytes_16 (let ((temp___180 (sparknacl__zero_bytes_16__aggregate_def
                                       #x00)))
                     (let ((temp___181 temp___180)) temp___181))))

;; "def_axiom"
(assert
  (forall ((temp___176 (_ BitVec 8)))
    (let ((temp___177 (sparknacl__zero_bytes_16__aggregate_def temp___176)))
      (and
        (has_bounds temp___177 0 15)
        (forall ((temp___178 Int))
          (! (=>
               (and (<= 0 temp___178) (<= temp___178 15))
               (= (to_rep (get temp___177 temp___178)) temp___176)) :pattern (
          (get
            temp___177
            temp___178)) ))))))

(declare-const c map1)

(declare-const k2__split_fields us_main_type)

(declare-const r map1)

;; "r'unused"
(define-fun rqtunused () map__ref
  (map__refqtmk r))

;; "k2__split_fields'unused"
(define-fun k2__split_fieldsqtunused () us_split_fields__ref
  (us_split_fields__refqtmk (us_split_fieldsqtmk k2__split_fields)))

;; "c'unused"
(define-fun cqtunused () map__ref
  (map__refqtmk c))

;; "Assume"
(assert (has_bounds zero_bytes_16 0 15))

(declare-const temp___822 map1)

;; "H"
(assert (has_bounds temp___822 0 15))

;; "H"
(assert
  (forall ((temp___179 Int))
    (! (=>
         (and (<= 0 temp___179) (<= temp___179 15))
         (= (to_rep (get temp___822 temp___179)) #x00)) :pattern ((get
                                                                    temp___822
                                                                    temp___179)) )))

;; "H"
(assert (= temp___822 (sparknacl__zero_bytes_16__aggregate_def #x00)))

;; "sparknacl__zero_bytes_16__aggregate_def'result'unused"
(define-fun sparknacl__zero_bytes_16__aggregate_defqtresultqtunused () map1
  temp___822)

;; "Assume"
(assert (= temp___822 zero_bytes_16))

;; "Assume"
(assert (has_bounds zero_bytes_32 0 31))

(declare-const temp___827 map1)

;; "H"
(assert (has_bounds temp___827 0 31))

;; "H"
(assert
  (forall ((temp___173 Int))
    (! (=>
         (and (<= 0 temp___173) (<= temp___173 31))
         (= (to_rep (get temp___827 temp___173)) #x00)) :pattern ((get
                                                                    temp___827
                                                                    temp___173)) )))

;; "H"
(assert (= temp___827 (sparknacl__zero_bytes_32__aggregate_def #x00)))

;; "sparknacl__zero_bytes_32__aggregate_def'result'unused"
(define-fun sparknacl__zero_bytes_32__aggregate_defqtresultqtunused () map1
  temp___827)

;; "Assume"
(assert (= temp___827 zero_bytes_32))

;; "Assume"
(assert
  (and
    (dynamic_property 0 2147483647 (to_rep1 c__first) (to_rep1 c__last))
    (well_formed (of_array c (to_rep1 c__first) (to_rep1 c__last)))))

;; "Assume"
(assert (dynamic_invariant m true false true true))

;; "Assume"
(assert (has_bounds n 0 23))

;; "Assume"
(assert true)

(declare-const o Bool)

(declare-const o1 Int)

;; "H"
(assert (= o1 (first m)))

(declare-const firstqtresultqtunused Int)

;; "H"
(assert (= firstqtresultqtunused o1))

(declare-const infix_eqqtresultqtunused Bool)

;; "H"
(assert (= infix_eqqtresultqtunused (ite (= o1 0) true false)))

(declare-const o2 Bool)

(declare-const o3 Int)

(declare-const to_repqtresultqtunused Int)

(declare-const o4 Int)

(declare-const to_repqtresultqtunused1 Int)

(declare-const map__contentqtresultqtunused map1)

(declare-const of_arrayqtresultqtunused us_t)

(declare-const o5 Int)

(declare-const to_repqtresultqtunused2 Int)

(declare-const infix_eqqtresultqtunused1 Bool)

;; "H"
(assert
  (ite (= o1 0)
    (and
      (= (to_rep1 c__last) o3)
      (and
        (= to_repqtresultqtunused o3)
        (and
          (= (to_rep1 c__first) o4)
          (and
            (= to_repqtresultqtunused1 o4)
            (and
              (= map__contentqtresultqtunused c)
              (and
                (= of_arrayqtresultqtunused (of_array c o4 o3))
                (and
                  (= (to_rep1 c__first) o5)
                  (and
                    (= to_repqtresultqtunused2 o5)
                    (and
                      (= o2 (ite (= o5 0) true false))
                      (= infix_eqqtresultqtunused1 o2))))))))))
    (= o2 false)))

(declare-const o6 Bool)

(declare-const o7 Int)

(declare-const lastqtresultqtunused Int)

(declare-const o8 Int)

(declare-const to_repqtresultqtunused3 Int)

(declare-const o9 Int)

(declare-const to_repqtresultqtunused4 Int)

(declare-const map__contentqtresultqtunused1 map1)

(declare-const of_arrayqtresultqtunused1 us_t)

(declare-const o10 Int)

(declare-const to_repqtresultqtunused5 Int)

(declare-const infix_eqqtresultqtunused2 Bool)

;; "H"
(assert
  (ite (= o2 true)
    (and
      (= o7 (last m))
      (and
        (= lastqtresultqtunused o7)
        (and
          (= (to_rep1 c__last) o8)
          (and
            (= to_repqtresultqtunused3 o8)
            (and
              (= (to_rep1 c__first) o9)
              (and
                (= to_repqtresultqtunused4 o9)
                (and
                  (= map__contentqtresultqtunused1 c)
                  (and
                    (= of_arrayqtresultqtunused1 (of_array c o9 o8))
                    (and
                      (= (to_rep1 c__last) o10)
                      (and
                        (= to_repqtresultqtunused5 o10)
                        (and
                          (= o6 (ite (= o10 o7) true false))
                          (= infix_eqqtresultqtunused2 o6))))))))))))
    (= o6 false)))

(declare-const o11 Int)

(declare-const lengthqtresultqtunused Int)

(declare-const infix_gteqqtresultqtunused Bool)

;; "H"
(assert
  (ite (= o6 true)
    (and
      (= o11 (length m))
      (and
        (= lengthqtresultqtunused o11)
        (and
          (= o (ite (<= 32 o11) true false))
          (= infix_gteqqtresultqtunused o))))
    (= o false)))

;; "H"
(assert (= o true))

;; "o"
(define-fun o12 () us_t
  (of_array zero_bytes_32 0 31))

;; "of_array'result'unused"
(define-fun of_arrayqtresultqtunused2 () us_t
  o12)

;; "H"
(assert (<= 0 31))

;; Goal "def'vc"
;; File "sparknacl-secretbox.ads", line 13, characters 0-0
(assert
  (not (<= (first m) 0)))

(check-sat)
